benchmarks_CP/INST_64x64/40/inst64x64_40_45.dzn
S=8;
start=[|
-1,	-1,	22,	-1,	-1,	-1,	42,	-1,	15,	-1,	50,	7,	32,	-1,	-1,	-1,	6,	-1,	-1,	-1,	58,	-1,	-1,	20,	48,	12,	60,	9,	26,	-1,	-1,	-1,	30,	-1,	40,	57,	-1,	-1,	47,	-1,	-1,	8,	19,	63,	17,	-1,	-1,	44,	34,	-1,	-1,	56,	5,	37,	-1,	35,	33,	-1,	13,	-1,	-1,	54,	25,	-1|
12,	20,	60,	-1,	-1,	-1,	30,	56,	25,	49,	-1,	-1,	40,	-1,	3,	-1,	50,	-1,	43,	52,	-1,	-1,	-1,	-1,	44,	-1,	-1,	54,	46,	41,	-1,	63,	7,	-1,	-1,	62,	-1,	-1,	-1,	61,	-1,	-1,	-1,	24,	-1,	-1,	-1,	10,	-1,	55,	-1,	-1,	4,	-1,	1,	17,	-1,	-1,	14,	45,	-1,	-1,	38,	-1|
10,	7,	35,	-1,	40,	33,	-1,	63,	34,	28,	-1,	-1,	-1,	29,	-1,	24,	18,	-1,	-1,	-1,	61,	37,	-1,	-1,	47,	57,	25,	3,	-1,	6,	-1,	-1,	-1,	-1,	-1,	27,	-1,	50,	-1,	44,	-1,	-1,	5,	60,	11,	56,	-1,	-1,	15,	-1,	22,	-1,	51,	-1,	38,	16,	-1,	-1,	-1,	39,	-1,	46,	48,	1|
46,	58,	37,	9,	-1,	-1,	-1,	-1,	-1,	-1,	-1,	64,	6,	-1,	10,	-1,	-1,	-1,	-1,	-1,	41,	-1,	-1,	-1,	-1,	61,	-1,	-1,	-1,	-1,	-1,	40,	-1,	-1,	53,	-1,	-1,	35,	-1,	-1,	-1,	-1,	-1,	-1,	-1,	21,	-1,	-1,	-1,	27,	39,	3,	-1,	-1,	-1,	45,	-1,	16,	-1,	-1,	28,	-1,	-1,	30|
-1,	-1,	-1,	-1,	-1,	51,	-1,	23,	-1,	9,	57,	30,	-1,	-1,	-1,	-1,	-1,	-1,	-1,	24,	-1,	-1,	36,	-1,	18,	-1,	37,	7,	-1,	29,	58,	21,	-1,	64,	4,	5,	12,	63,	25,	-1,	-1,	49,	52,	-1,	53,	32,	27,	33,	-1,	6,	-1,	14,	54,	-1,	-1,	-1,	-1,	-1,	-1,	-1,	-1,	-1,	61,	3|
25,	44,	3,	-1,	-1,	-1,	-1,	-1,	-1,	51,	-1,	-1,	21,	22,	23,	-1,	26,	-1,	-1,	-1,	48,	-1,	15,	9,	-1,	-1,	16,	-1,	53,	-1,	-1,	-1,	20,	24,	-1,	-1,	-1,	-1,	-1,	-1,	-1,	-1,	-1,	55,	54,	-1,	40,	12,	-1,	57,	28,	-1,	63,	-1,	-1,	47,	49,	4,	2,	7,	-1,	62,	29,	-1|
-1,	-1,	-1,	1,	-1,	54,	-1,	-1,	-1,	5,	44,	42,	-1,	20,	-1,	-1,	-1,	-1,	-1,	23,	-1,	-1,	-1,	46,	36,	34,	28,	-1,	30,	19,	14,	31,	33,	-1,	55,	2,	29,	-1,	-1,	-1,	-1,	25,	16,	9,	-1,	39,	51,	-1,	-1,	-1,	-1,	53,	-1,	52,	-1,	-1,	27,	-1,	-1,	-1,	-1,	-1,	50,	17|
-1,	50,	5,	-1,	-1,	-1,	6,	19,	-1,	-1,	39,	-1,	-1,	26,	54,	58,	-1,	-1,	-1,	-1,	-1,	-1,	-1,	-1,	-1,	59,	-1,	-1,	-1,	-1,	-1,	-1,	-1,	-1,	46,	-1,	-1,	-1,	-1,	48,	-1,	-1,	-1,	-1,	-1,	-1,	3,	-1,	-1,	31,	-1,	25,	32,	30,	2,	-1,	24,	20,	57,	42,	37,	55,	44,	-1|
-1,	-1,	-1,	-1,	12,	-1,	52,	-1,	42,	60,	-1,	-1,	14,	-1,	-1,	-1,	-1,	-1,	-1,	37,	45,	-1,	-1,	-1,	7,	-1,	36,	41,	-1,	-1,	44,	-1,	-1,	-1,	-1,	-1,	-1,	-1,	-1,	-1,	23,	-1,	-1,	-1,	-1,	-1,	21,	-1,	-1,	3,	32,	19,	31,	-1,	53,	43,	-1,	26,	-1,	4,	-1,	59,	-1,	-1|
-1,	-1,	30,	36,	-1,	-1,	-1,	-1,	-1,	22,	-1,	-1,	10,	-1,	-1,	-1,	-1,	52,	-1,	-1,	-1,	23,	42,	-1,	-1,	-1,	48,	21,	35,	-1,	-1,	15,	-1,	-1,	58,	61,	53,	-1,	-1,	-1,	-1,	-1,	-1,	49,	-1,	5,	43,	-1,	-1,	-1,	-1,	-1,	-1,	-1,	-1,	-1,	55,	56,	-1,	-1,	-1,	25,	33,	13|
-1,	-1,	-1,	28,	44,	-1,	-1,	-1,	-1,	-1,	-1,	52,	35,	-1,	29,	-1,	43,	18,	-1,	-1,	8,	-1,	-1,	-1,	-1,	-1,	-1,	-1,	-1,	-1,	2,	60,	-1,	48,	-1,	42,	-1,	11,	-1,	-1,	15,	-1,	40,	-1,	38,	12,	19,	-1,	56,	-1,	-1,	-1,	-1,	55,	-1,	-1,	9,	64,	-1,	-1,	31,	16,	-1,	37|
11,	-1,	-1,	-1,	63,	-1,	-1,	-1,	12,	-1,	-1,	36,	-1,	38,	-1,	-1,	-1,	-1,	31,	-1,	-1,	62,	57,	64,	9,	-1,	17,	42,	-1,	27,	-1,	-1,	-1,	30,	60,	37,	-1,	-1,	-1,	-1,	-1,	-1,	56,	-1,	-1,	-1,	-1,	26,	-1,	39,	-1,	-1,	-1,	-1,	52,	2,	23,	-1,	-1,	61,	-1,	29,	-1,	21|
45,	56,	23,	-1,	29,	-1,	62,	55,	-1,	-1,	-1,	58,	-1,	-1,	16,	-1,	-1,	40,	10,	12,	-1,	63,	-1,	-1,	6,	53,	31,	-1,	-1,	20,	-1,	19,	5,	52,	-1,	-1,	13,	-1,	50,	-1,	-1,	-1,	60,	59,	-1,	36,	-1,	-1,	-1,	-1,	-1,	-1,	64,	-1,	-1,	24,	-1,	-1,	-1,	57,	-1,	-1,	7,	47|
47,	-1,	-1,	4,	58,	-1,	-1,	-1,	-1,	-1,	59,	-1,	39,	13,	27,	-1,	2,	-1,	17,	-1,	-1,	-1,	33,	48,	-1,	-1,	-1,	-1,	-1,	-1,	-1,	-1,	-1,	-1,	-1,	63,	-1,	-1,	-1,	31,	-1,	42,	45,	-1,	52,	-1,	-1,	-1,	-1,	-1,	6,	-1,	23,	-1,	-1,	62,	-1,	-1,	-1,	-1,	49,	50,	-1,	-1|
19,	-1,	-1,	-1,	-1,	-1,	-1,	54,	-1,	-1,	-1,	-1,	48,	-1,	-1,	3,	-1,	-1,	14,	-1,	-1,	6,	-1,	50,	4,	8,	-1,	-1,	32,	57,	-1,	29,	-1,	-1,	38,	-1,	-1,	-1,	-1,	-1,	-1,	-1,	24,	-1,	-1,	-1,	-1,	53,	-1,	-1,	20,	-1,	10,	-1,	-1,	-1,	62,	-1,	-1,	-1,	-1,	-1,	17,	-1|
-1,	-1,	-1,	-1,	-1,	50,	-1,	-1,	-1,	-1,	-1,	40,	56,	54,	25,	-1,	22,	15,	19,	26,	-1,	35,	-1,	29,	52,	-1,	-1,	-1,	-1,	-1,	-1,	24,	-1,	-1,	44,	43,	23,	57,	-1,	7,	-1,	-1,	-1,	-1,	3,	-1,	-1,	-1,	-1,	-1,	-1,	-1,	-1,	16,	36,	30,	-1,	46,	-1,	14,	45,	51,	-1,	-1|
31,	-1,	38,	-1,	46,	16,	-1,	11,	44,	63,	-1,	-1,	1,	7,	-1,	39,	-1,	57,	-1,	-1,	-1,	27,	-1,	-1,	-1,	50,	35,	4,	34,	-1,	48,	-1,	-1,	-1,	-1,	-1,	-1,	-1,	2,	-1,	-1,	-1,	-1,	-1,	9,	-1,	-1,	-1,	64,	15,	36,	-1,	17,	-1,	-1,	-1,	-1,	-1,	-1,	-1,	-1,	-1,	-1,	24|
13,	-1,	42,	-1,	-1,	-1,	-1,	-1,	57,	-1,	64,	62,	-1,	-1,	48,	15,	-1,	-1,	-1,	38,	39,	50,	-1,	26,	-1,	58,	-1,	-1,	51,	-1,	-1,	22,	52,	47,	-1,	3,	60,	-1,	-1,	16,	35,	-1,	41,	56,	-1,	63,	-1,	-1,	40,	-1,	-1,	2,	-1,	31,	-1,	49,	-1,	30,	-1,	32,	-1,	-1,	-1,	19|
-1,	23,	-1,	-1,	51,	-1,	27,	-1,	35,	19,	-1,	-1,	-1,	-1,	-1,	-1,	-1,	-1,	24,	-1,	42,	-1,	34,	-1,	-1,	32,	13,	-1,	44,	26,	1,	-1,	-1,	-1,	-1,	-1,	7,	-1,	-1,	-1,	52,	28,	-1,	2,	-1,	49,	-1,	-1,	-1,	33,	25,	-1,	-1,	-1,	-1,	-1,	-1,	-1,	-1,	50,	43,	-1,	-1,	-1|
32,	-1,	-1,	8,	30,	62,	-1,	-1,	9,	-1,	-1,	-1,	-1,	-1,	-1,	-1,	20,	-1,	-1,	-1,	-1,	-1,	-1,	-1,	63,	24,	-1,	27,	-1,	-1,	47,	-1,	35,	17,	-1,	-1,	-1,	-1,	38,	-1,	-1,	36,	-1,	53,	-1,	-1,	44,	-1,	-1,	-1,	-1,	42,	-1,	-1,	-1,	-1,	-1,	-1,	49,	-1,	-1,	11,	40,	41|
-1,	-1,	-1,	-1,	33,	-1,	-1,	49,	-1,	-1,	-1,	8,	-1,	25,	-1,	-1,	1,	32,	-1,	41,	37,	-1,	13,	-1,	-1,	21,	54,	-1,	-1,	-1,	12,	18,	44,	29,	19,	-1,	64,	-1,	-1,	-1,	55,	40,	46,	-1,	-1,	22,	-1,	15,	28,	51,	-1,	-1,	-1,	-1,	-1,	14,	-1,	-1,	-1,	-1,	-1,	31,	-1,	61|
56,	-1,	-1,	-1,	55,	-1,	-1,	-1,	49,	42,	24,	38,	-1,	-1,	40,	47,	-1,	6,	28,	-1,	-1,	64,	-1,	-1,	-1,	-1,	-1,	31,	5,	8,	-1,	41,	-1,	13,	62,	-1,	-1,	-1,	18,	-1,	-1,	-1,	59,	-1,	27,	43,	-1,	4,	22,	-1,	-1,	-1,	19,	-1,	-1,	57,	51,	-1,	-1,	-1,	-1,	-1,	2,	-1|
-1,	12,	-1,	-1,	14,	-1,	22,	-1,	-1,	-1,	31,	-1,	-1,	-1,	55,	51,	19,	-1,	-1,	-1,	-1,	17,	-1,	-1,	11,	-1,	56,	49,	20,	-1,	-1,	42,	-1,	63,	34,	-1,	-1,	40,	27,	15,	54,	-1,	26,	-1,	24,	33,	-1,	-1,	-1,	44,	9,	60,	-1,	-1,	-1,	-1,	25,	-1,	-1,	-1,	-1,	57,	-1,	-1|
-1,	35,	-1,	-1,	-1,	-1,	-1,	41,	-1,	-1,	-1,	20,	-1,	-1,	18,	-1,	-1,	-1,	-1,	-1,	15,	-1,	30,	45,	19,	55,	-1,	-1,	10,	62,	43,	-1,	9,	-1,	49,	-1,	-1,	-1,	42,	-1,	39,	-1,	-1,	-1,	-1,	-1,	-1,	-1,	50,	-1,	12,	61,	-1,	-1,	-1,	-1,	-1,	-1,	46,	-1,	13,	14,	-1,	-1|
-1,	-1,	-1,	27,	54,	13,	-1,	64,	3,	-1,	19,	-1,	-1,	-1,	-1,	-1,	-1,	60,	44,	28,	-1,	36,	52,	-1,	16,	-1,	-1,	-1,	-1,	15,	-1,	-1,	-1,	-1,	-1,	-1,	-1,	-1,	9,	-1,	30,	11,	-1,	51,	-1,	-1,	-1,	47,	-1,	43,	-1,	6,	41,	18,	20,	-1,	39,	-1,	61,	-1,	-1,	49,	-1,	10|
-1,	52,	-1,	31,	-1,	19,	20,	33,	-1,	-1,	-1,	-1,	28,	44,	-1,	-1,	-1,	41,	-1,	-1,	22,	-1,	-1,	-1,	-1,	13,	-1,	-1,	-1,	12,	-1,	8,	-1,	58,	42,	36,	30,	5,	-1,	39,	43,	23,	-1,	35,	-1,	10,	-1,	-1,	11,	-1,	-1,	-1,	-1,	15,	-1,	-1,	-1,	-1,	-1,	-1,	-1,	2,	45,	62|
61,	-1,	18,	-1,	-1,	37,	41,	2,	13,	-1,	-1,	-1,	-1,	17,	-1,	-1,	-1,	20,	40,	-1,	16,	48,	-1,	-1,	-1,	-1,	-1,	64,	6,	-1,	-1,	-1,	-1,	-1,	27,	19,	-1,	-1,	8,	-1,	-1,	15,	-1,	-1,	-1,	60,	62,	-1,	52,	-1,	-1,	-1,	46,	-1,	-1,	-1,	-1,	-1,	34,	-1,	63,	58,	1,	4|
-1,	-1,	36,	-1,	3,	-1,	-1,	-1,	-1,	47,	-1,	15,	-1,	-1,	11,	31,	46,	45,	-1,	13,	-1,	-1,	53,	-1,	-1,	-1,	-1,	58,	39,	-1,	-1,	38,	-1,	-1,	-1,	-1,	-1,	28,	-1,	33,	29,	-1,	-1,	-1,	44,	52,	-1,	-1,	-1,	-1,	37,	-1,	24,	-1,	-1,	-1,	-1,	-1,	-1,	-1,	8,	-1,	-1,	-1|
-1,	-1,	-1,	-1,	-1,	63,	-1,	59,	-1,	48,	-1,	50,	-1,	-1,	36,	-1,	-1,	-1,	29,	-1,	-1,	55,	2,	-1,	42,	-1,	10,	-1,	61,	-1,	-1,	37,	4,	23,	15,	-1,	-1,	49,	-1,	52,	-1,	-1,	57,	-1,	21,	-1,	-1,	-1,	-1,	1,	-1,	-1,	-1,	-1,	-1,	-1,	-1,	-1,	-1,	-1,	-1,	-1,	-1,	-1|
-1,	-1,	-1,	55,	9,	-1,	-1,	1,	-1,	-1,	-1,	-1,	-1,	-1,	45,	-1,	25,	-1,	63,	-1,	-1,	-1,	-1,	-1,	-1,	-1,	41,	-1,	7,	-1,	52,	-1,	-1,	-1,	-1,	13,	61,	31,	44,	6,	-1,	58,	-1,	-1,	16,	-1,	-1,	27,	-1,	-1,	-1,	35,	21,	-1,	-1,	-1,	-1,	50,	-1,	-1,	-1,	-1,	-1,	-1|
-1,	-1,	-1,	-1,	11,	-1,	-1,	-1,	-1,	37,	-1,	54,	-1,	-1,	35,	42,	30,	64,	15,	50,	-1,	-1,	-1,	57,	29,	-1,	-1,	-1,	-1,	-1,	24,	33,	21,	-1,	-1,	-1,	41,	-1,	-1,	32,	-1,	19,	6,	36,	-1,	-1,	-1,	22,	-1,	-1,	-1,	13,	-1,	-1,	47,	34,	31,	51,	-1,	52,	56,	38,	20,	-1|
49,	-1,	-1,	-1,	-1,	-1,	-1,	16,	-1,	-1,	61,	33,	-1,	27,	-1,	-1,	-1,	14,	-1,	-1,	-1,	-1,	-1,	59,	34,	-1,	-1,	44,	-1,	25,	-1,	43,	-1,	-1,	63,	24,	-1,	55,	-1,	2,	-1,	56,	42,	-1,	13,	-1,	-1,	37,	-1,	64,	-1,	-1,	-1,	7,	51,	-1,	-1,	36,	-1,	-1,	-1,	35,	-1,	-1|
-1,	61,	-1,	-1,	1,	21,	-1,	-1,	-1,	-1,	2,	28,	50,	-1,	-1,	-1,	-1,	-1,	48,	-1,	-1,	57,	-1,	-1,	-1,	-1,	-1,	-1,	-1,	51,	-1,	-1,	-1,	22,	-1,	45,	-1,	-1,	-1,	-1,	59,	-1,	-1,	38,	-1,	6,	24,	-1,	-1,	-1,	53,	-1,	-1,	-1,	32,	18,	-1,	-1,	29,	9,	-1,	56,	-1,	-1|
5,	-1,	63,	-1,	28,	-1,	-1,	-1,	-1,	-1,	-1,	-1,	-1,	40,	-1,	4,	-1,	-1,	-1,	-1,	-1,	41,	59,	-1,	1,	14,	-1,	56,	45,	31,	-1,	50,	-1,	-1,	-1,	-1,	15,	6,	-1,	-1,	-1,	52,	-1,	-1,	-1,	9,	25,	-1,	27,	-1,	-1,	-1,	-1,	8,	48,	-1,	43,	-1,	58,	36,	-1,	-1,	55,	-1|
-1,	29,	-1,	60,	27,	10,	-1,	-1,	-1,	-1,	-1,	6,	3,	-1,	33,	-1,	-1,	-1,	-1,	25,	-1,	42,	-1,	-1,	21,	-1,	53,	-1,	9,	24,	19,	49,	-1,	62,	2,	-1,	-1,	-1,	30,	-1,	-1,	16,	-1,	12,	58,	-1,	36,	-1,	-1,	-1,	-1,	-1,	-1,	-1,	-1,	-1,	-1,	-1,	-1,	-1,	32,	-1,	-1,	-1|
-1,	26,	41,	49,	-1,	31,	-1,	30,	-1,	13,	-1,	-1,	55,	-1,	-1,	-1,	-1,	-1,	47,	-1,	-1,	-1,	-1,	-1,	-1,	27,	6,	-1,	15,	-1,	11,	16,	50,	42,	51,	28,	-1,	18,	-1,	-1,	4,	-1,	-1,	-1,	23,	48,	-1,	-1,	-1,	-1,	7,	-1,	-1,	-1,	-1,	-1,	-1,	-1,	-1,	-1,	-1,	24,	-1,	-1|
-1,	25,	-1,	-1,	-1,	-1,	-1,	47,	-1,	64,	-1,	19,	-1,	59,	-1,	-1,	-1,	-1,	-1,	-1,	24,	-1,	17,	-1,	54,	-1,	-1,	-1,	-1,	-1,	-1,	-1,	27,	-1,	1,	8,	-1,	-1,	58,	-1,	-1,	-1,	22,	20,	30,	31,	-1,	-1,	-1,	-1,	51,	-1,	45,	-1,	41,	23,	-1,	-1,	5,	-1,	62,	4,	-1,	-1|
-1,	46,	-1,	-1,	16,	-1,	19,	9,	-1,	36,	-1,	-1,	42,	-1,	-1,	-1,	-1,	-1,	-1,	-1,	-1,	-1,	-1,	49,	60,	25,	-1,	48,	58,	-1,	10,	30,	-1,	-1,	-1,	-1,	56,	4,	-1,	-1,	-1,	-1,	-1,	-1,	55,	-1,	7,	-1,	-1,	24,	52,	50,	-1,	38,	-1,	64,	-1,	-1,	33,	-1,	-1,	-1,	-1,	-1|
33,	38,	6,	-1,	-1,	8,	-1,	-1,	-1,	-1,	-1,	-1,	49,	47,	-1,	-1,	31,	-1,	-1,	43,	-1,	-1,	45,	-1,	35,	64,	23,	20,	22,	-1,	62,	-1,	14,	-1,	-1,	55,	-1,	-1,	-1,	-1,	-1,	39,	-1,	-1,	-1,	53,	-1,	19,	1,	9,	-1,	-1,	-1,	-1,	-1,	-1,	46,	57,	-1,	-1,	50,	-1,	-1,	48|
51,	-1,	62,	-1,	42,	22,	-1,	-1,	-1,	58,	14,	27,	-1,	35,	-1,	25,	38,	39,	-1,	19,	-1,	-1,	-1,	6,	-1,	-1,	-1,	43,	17,	63,	-1,	57,	31,	-1,	-1,	60,	48,	29,	-1,	24,	-1,	-1,	8,	-1,	-1,	44,	-1,	-1,	-1,	49,	13,	33,	-1,	-1,	-1,	-1,	1,	-1,	-1,	-1,	7,	-1,	37,	64|
8,	-1,	-1,	-1,	48,	-1,	-1,	35,	-1,	-1,	28,	-1,	-1,	56,	6,	-1,	-1,	12,	-1,	-1,	-1,	-1,	1,	-1,	-1,	47,	-1,	-1,	2,	-1,	-1,	5,	38,	-1,	-1,	-1,	26,	-1,	49,	29,	17,	59,	58,	-1,	-1,	42,	-1,	-1,	-1,	-1,	44,	-1,	-1,	-1,	3,	36,	22,	15,	-1,	23,	51,	-1,	-1,	-1|
-1,	-1,	-1,	-1,	5,	1,	33,	22,	48,	-1,	60,	-1,	-1,	-1,	49,	46,	-1,	-1,	-1,	-1,	-1,	52,	55,	-1,	-1,	16,	39,	12,	13,	-1,	37,	-1,	-1,	-1,	-1,	-1,	34,	-1,	-1,	-1,	-1,	3,	-1,	-1,	-1,	23,	-1,	40,	21,	32,	10,	11,	29,	17,	-1,	-1,	41,	7,	-1,	58,	9,	-1,	64,	38|
-1,	63,	16,	61,	-1,	-1,	7,	46,	43,	3,	-1,	41,	-1,	18,	-1,	17,	39,	-1,	-1,	31,	-1,	-1,	10,	23,	62,	30,	42,	6,	40,	-1,	-1,	-1,	-1,	-1,	-1,	50,	-1,	-1,	-1,	53,	12,	-1,	-1,	-1,	15,	54,	-1,	49,	51,	-1,	8,	1,	-1,	-1,	-1,	-1,	-1,	14,	19,	-1,	11,	5,	-1,	60|
-1,	4,	59,	-1,	-1,	52,	-1,	-1,	-1,	-1,	-1,	37,	-1,	39,	-1,	55,	-1,	50,	62,	-1,	-1,	-1,	-1,	-1,	57,	-1,	-1,	45,	-1,	53,	-1,	48,	-1,	-1,	-1,	-1,	-1,	-1,	60,	23,	28,	61,	-1,	-1,	-1,	-1,	-1,	51,	-1,	-1,	35,	54,	-1,	26,	5,	-1,	47,	-1,	-1,	-1,	-1,	-1,	-1,	32|
3,	-1,	-1,	62,	47,	-1,	-1,	-1,	32,	-1,	12,	-1,	58,	-1,	22,	64,	54,	51,	37,	-1,	-1,	26,	-1,	-1,	33,	-1,	9,	-1,	56,	23,	-1,	-1,	-1,	-1,	-1,	35,	-1,	-1,	-1,	30,	-1,	-1,	4,	16,	-1,	27,	-1,	36,	-1,	63,	41,	-1,	-1,	2,	7,	-1,	-1,	17,	-1,	-1,	-1,	-1,	57,	-1|
-1,	-1,	55,	42,	-1,	-1,	-1,	-1,	51,	-1,	-1,	-1,	-1,	19,	-1,	-1,	-1,	2,	-1,	-1,	-1,	-1,	-1,	-1,	-1,	-1,	11,	-1,	-1,	-1,	41,	-1,	-1,	37,	-1,	-1,	36,	-1,	-1,	-1,	22,	35,	-1,	-1,	-1,	-1,	34,	-1,	-1,	-1,	-1,	15,	-1,	-1,	39,	-1,	50,	62,	56,	-1,	-1,	-1,	-1,	-1|
40,	-1,	-1,	56,	39,	18,	-1,	-1,	-1,	10,	36,	-1,	44,	-1,	13,	-1,	-1,	-1,	-1,	-1,	33,	-1,	-1,	-1,	-1,	-1,	-1,	1,	4,	14,	-1,	17,	-1,	41,	-1,	-1,	16,	61,	-1,	-1,	-1,	-1,	-1,	-1,	-1,	50,	-1,	20,	-1,	-1,	-1,	-1,	-1,	58,	62,	-1,	48,	-1,	35,	-1,	-1,	26,	-1,	34|
-1,	41,	-1,	-1,	-1,	-1,	-1,	-1,	-1,	62,	20,	16,	-1,	45,	-1,	35,	-1,	-1,	9,	-1,	-1,	-1,	-1,	-1,	-1,	-1,	-1,	19,	-1,	7,	28,	-1,	-1,	5,	39,	51,	-1,	22,	15,	-1,	-1,	-1,	30,	-1,	33,	64,	48,	-1,	61,	-1,	-1,	40,	-1,	-1,	-1,	-1,	-1,	-1,	-1,	-1,	-1,	-1,	-1,	46|
-1,	-1,	1,	-1,	-1,	-1,	-1,	52,	29,	-1,	-1,	-1,	-1,	50,	7,	-1,	-1,	-1,	-1,	-1,	-1,	-1,	-1,	-1,	41,	-1,	-1,	-1,	14,	11,	3,	-1,	61,	-1,	22,	54,	-1,	19,	-1,	59,	58,	10,	-1,	-1,	36,	-1,	-1,	-1,	-1,	-1,	-1,	-1,	-1,	64,	27,	48,	17,	25,	45,	-1,	-1,	21,	30,	56|
-1,	11,	45,	30,	57,	-1,	-1,	5,	-1,	-1,	47,	-1,	-1,	24,	2,	21,	4,	-1,	-1,	29,	31,	-1,	-1,	-1,	-1,	56,	-1,	-1,	8,	-1,	-1,	13,	53,	-1,	-1,	12,	42,	38,	-1,	64,	-1,	-1,	27,	-1,	-1,	-1,	-1,	7,	-1,	52,	-1,	41,	-1,	-1,	-1,	15,	59,	-1,	-1,	62,	-1,	-1,	-1,	-1|
-1,	54,	61,	-1,	43,	-1,	-1,	3,	56,	55,	40,	22,	8,	-1,	-1,	-1,	60,	-1,	26,	-1,	62,	-1,	46,	-1,	25,	-1,	-1,	-1,	-1,	-1,	-1,	-1,	2,	15,	-1,	-1,	58,	-1,	-1,	-1,	5,	-1,	-1,	-1,	19,	-1,	-1,	-1,	-1,	-1,	-1,	31,	-1,	53,	-1,	-1,	29,	1,	-1,	-1,	24,	-1,	-1,	33|
-1,	-1,	-1,	-1,	-1,	-1,	-1,	-1,	-1,	-1,	15,	-1,	-1,	-1,	-1,	-1,	55,	61,	-1,	64,	-1,	30,	-1,	33,	27,	-1,	-1,	-1,	37,	21,	-1,	-1,	-1,	-1,	-1,	10,	28,	8,	41,	36,	46,	45,	-1,	-1,	63,	57,	-1,	43,	29,	2,	-1,	-1,	26,	-1,	-1,	13,	-1,	49,	-1,	-1,	-1,	-1,	54,	31|
21,	33,	56,	-1,	22,	-1,	-1,	12,	27,	26,	-1,	3,	-1,	-1,	46,	-1,	-1,	-1,	1,	-1,	-1,	2,	47,	-1,	30,	48,	-1,	51,	-1,	43,	-1,	9,	-1,	25,	14,	-1,	31,	-1,	37,	-1,	-1,	-1,	38,	41,	61,	-1,	-1,	-1,	8,	50,	40,	5,	-1,	-1,	-1,	10,	16,	58,	-1,	13,	-1,	44,	-1,	7|
15,	-1,	46,	-1,	-1,	-1,	-1,	-1,	-1,	61,	54,	11,	31,	-1,	1,	-1,	-1,	-1,	20,	53,	-1,	-1,	-1,	40,	23,	-1,	-1,	-1,	-1,	16,	-1,	-1,	24,	-1,	-1,	-1,	-1,	-1,	-1,	49,	-1,	-1,	-1,	-1,	48,	-1,	-1,	25,	57,	-1,	55,	58,	36,	47,	4,	51,	-1,	-1,	43,	-1,	60,	27,	34,	-1|
-1,	-1,	-1,	7,	-1,	55,	-1,	26,	-1,	-1,	42,	-1,	62,	-1,	38,	-1,	36,	27,	57,	-1,	-1,	-1,	19,	-1,	-1,	17,	-1,	-1,	29,	49,	-1,	61,	-1,	-1,	-1,	52,	5,	-1,	-1,	50,	-1,	34,	-1,	-1,	-1,	47,	-1,	1,	30,	20,	-1,	24,	-1,	-1,	-1,	-1,	-1,	12,	-1,	-1,	-1,	53,	-1,	-1|
-1,	-1,	-1,	-1,	-1,	-1,	-1,	27,	-1,	57,	30,	-1,	-1,	-1,	37,	-1,	-1,	-1,	-1,	-1,	52,	-1,	-1,	12,	-1,	2,	20,	10,	-1,	-1,	64,	-1,	-1,	4,	-1,	-1,	35,	39,	-1,	46,	62,	33,	53,	-1,	60,	17,	-1,	9,	-1,	21,	63,	28,	44,	11,	-1,	-1,	26,	41,	-1,	8,	-1,	61,	-1,	36|
-1,	19,	33,	-1,	32,	-1,	14,	-1,	-1,	-1,	-1,	-1,	-1,	-1,	-1,	23,	-1,	26,	-1,	-1,	-1,	-1,	5,	2,	15,	-1,	-1,	47,	-1,	58,	-1,	-1,	39,	35,	-1,	-1,	-1,	-1,	10,	13,	-1,	6,	43,	11,	22,	61,	-1,	29,	-1,	40,	-1,	51,	-1,	60,	64,	-1,	-1,	-1,	-1,	-1,	-1,	17,	36,	-1|
1,	-1,	64,	-1,	49,	-1,	-1,	31,	6,	43,	17,	18,	-1,	-1,	57,	-1,	-1,	-1,	-1,	60,	-1,	44,	35,	63,	-1,	10,	61,	-1,	11,	3,	53,	27,	-1,	-1,	-1,	38,	-1,	-1,	-1,	-1,	-1,	21,	39,	-1,	-1,	15,	-1,	8,	23,	7,	16,	-1,	22,	-1,	46,	-1,	56,	29,	-1,	-1,	-1,	13,	-1,	-1|
-1,	-1,	44,	-1,	-1,	30,	16,	62,	19,	7,	49,	-1,	-1,	-1,	64,	50,	-1,	-1,	-1,	-1,	-1,	32,	56,	61,	-1,	-1,	-1,	2,	-1,	-1,	18,	-1,	-1,	1,	5,	-1,	-1,	-1,	-1,	-1,	-1,	-1,	-1,	-1,	-1,	-1,	-1,	-1,	-1,	-1,	-1,	-1,	-1,	-1,	-1,	-1,	4,	-1,	-1,	28,	-1,	-1,	-1,	26|
-1,	-1,	-1,	-1,	-1,	-1,	63,	-1,	-1,	-1,	-1,	-1,	52,	30,	60,	-1,	-1,	49,	-1,	-1,	-1,	18,	-1,	-1,	-1,	23,	-1,	-1,	-1,	13,	-1,	35,	-1,	-1,	-1,	9,	27,	-1,	-1,	19,	64,	-1,	-1,	54,	-1,	-1,	-1,	-1,	-1,	53,	-1,	47,	-1,	10,	-1,	8,	-1,	45,	3,	16,	-1,	1,	-1,	-1|
-1,	-1,	27,	-1,	-1,	15,	12,	4,	-1,	14,	-1,	-1,	59,	-1,	56,	-1,	8,	36,	21,	-1,	47,	54,	58,	-1,	-1,	1,	45,	16,	-1,	-1,	-1,	-1,	64,	6,	11,	-1,	-1,	-1,	29,	-1,	-1,	26,	23,	-1,	42,	-1,	63,	2,	-1,	-1,	-1,	37,	-1,	-1,	-1,	9,	-1,	-1,	30,	-1,	-1,	-1,	-1,	-1|
52,	-1,	-1,	57,	35,	-1,	-1,	-1,	-1,	1,	27,	45,	-1,	42,	-1,	2,	16,	38,	22,	-1,	-1,	-1,	-1,	-1,	-1,	6,	-1,	29,	-1,	-1,	-1,	-1,	17,	53,	23,	44,	-1,	-1,	-1,	28,	-1,	18,	9,	-1,	-1,	58,	-1,	30,	3,	61,	-1,	-1,	-1,	-1,	33,	-1,	-1,	-1,	31,	49,	-1,	32,	-1,	-1|
-1,	47,	-1,	-1,	-1,	-1,	3,	-1,	38,	-1,	5,	9,	-1,	-1,	4,	-1,	-1,	7,	64,	-1,	-1,	39,	23,	-1,	-1,	-1,	-1,	17,	-1,	-1,	46,	-1,	12,	43,	30,	48,	52,	-1,	-1,	-1,	-1,	-1,	-1,	19,	-1,	-1,	-1,	-1,	2,	-1,	49,	59,	18,	-1,	56,	42,	57,	33,	63,	15,	61,	6,	-1,	-1|
-1,	9,	-1,	-1,	-1,	-1,	-1,	-1,	-1,	-1,	-1,	-1,	-1,	37,	28,	-1,	57,	-1,	-1,	-1,	-1,	19,	-1,	-1,	64,	36,	26,	-1,	-1,	-1,	7,	-1,	-1,	45,	-1,	-1,	-1,	-1,	22,	-1,	16,	-1,	3,	52,	12,	-1,	-1,	60,	-1,	-1,	-1,	43,	14,	44,	-1,	-1,	53,	-1,	47,	-1,	-1,	40,	11,	-1|];
