sudoku-ls/benchmarks_LEQ/INST_64x64/40/inst64x64_40_45.txt
8
1
-1	-1	-1	-1	-1	-1	42	45	15	-1	-1	7	-1	-1	-1	-1	6	10	3	59	-1	29	39	-1	-1	-1	-1	-1	-1	-1	27	-1	-1	-1	-1	-1	-1	1	-1	-1	-1	8	19	-1	17	-1	-1	44	-1	-1	64	56	-1	37	23	-1	-1	-1	-1	21	-1	-1	25	52
12	20	-1	-1	-1	-1	-1	-1	-1	-1	33	-1	40	-1	3	27	-1	47	43	-1	-1	-1	51	19	44	-1	-1	-1	-1	41	13	63	7	-1	28	-1	-1	-1	-1	61	-1	-1	15	-1	6	-1	-1	-1	-1	-1	-1	9	-1	36	-1	17	-1	-1	-1	45	-1	64	38	-1
10	7	-1	-1	-1	-1	31	63	-1	28	-1	-1	53	-1	62	24	18	54	55	-1	61	-1	4	-1	47	57	-1	3	64	-1	49	-1	-1	14	17	-1	-1	-1	-1	44	-1	-1	5	-1	-1	-1	-1	23	15	-1	-1	-1	-1	12	-1	16	58	-1	9	-1	-1	-1	-1	-1
46	58	37	-1	-1	-1	55	-1	-1	-1	-1	64	6	-1	-1	-1	-1	-1	-1	-1	41	14	-1	-1	-1	61	24	-1	50	38	-1	-1	22	-1	53	32	54	-1	23	26	-1	7	20	18	-1	21	29	-1	-1	27	39	3	13	-1	59	45	36	-1	15	-1	28	60	-1	-1
48	-1	-1	-1	-1	-1	34	23	55	9	57	30	38	-1	-1	56	-1	44	-1	-1	28	-1	36	-1	-1	20	37	7	-1	-1	-1	-1	15	-1	4	5	-1	-1	-1	-1	-1	-1	52	-1	-1	32	27	-1	-1	6	46	14	-1	-1	-1	50	-1	-1	-1	10	22	-1	-1	3
25	44	3	-1	52	61	-1	-1	36	-1	46	14	-1	-1	-1	-1	-1	-1	27	56	-1	-1	-1	-1	-1	-1	16	-1	53	-1	39	-1	-1	-1	-1	-1	6	60	-1	41	1	-1	13	55	-1	-1	-1	12	-1	-1	28	-1	63	-1	-1	-1	-1	-1	2	7	-1	62	29	-1
-1	-1	49	-1	4	54	8	-1	37	5	-1	-1	-1	20	59	60	64	-1	11	23	-1	-1	-1	46	36	-1	28	-1	-1	19	-1	-1	-1	3	-1	2	-1	56	-1	-1	-1	-1	16	-1	-1	39	51	58	-1	-1	-1	-1	48	-1	-1	-1	27	-1	26	6	-1	-1	-1	-1
-1	-1	5	16	-1	14	6	19	47	45	-1	63	-1	26	54	58	12	-1	-1	-1	17	49	-1	-1	-1	59	-1	-1	62	-1	-1	-1	-1	-1	46	-1	10	-1	13	48	38	-1	28	-1	4	-1	-1	-1	7	-1	29	-1	32	-1	-1	-1	-1	20	-1	42	-1	-1	-1	-1
-1	24	-1	-1	12	-1	-1	-1	42	60	18	-1	14	-1	-1	-1	28	-1	-1	-1	-1	-1	-1	-1	7	-1	-1	-1	-1	-1	-1	-1	29	-1	-1	15	-1	-1	35	-1	-1	62	-1	-1	-1	-1	21	-1	-1	3	32	-1	31	-1	-1	-1	10	-1	-1	4	40	-1	63	27
-1	-1	-1	-1	-1	27	32	38	-1	-1	41	47	10	62	19	-1	-1	52	-1	-1	9	23	-1	-1	3	46	48	-1	35	-1	-1	-1	51	18	58	61	-1	-1	17	4	6	-1	14	-1	-1	5	-1	-1	63	37	-1	-1	-1	-1	26	-1	55	-1	39	-1	-1	-1	-1	13
39	-1	-1	-1	-1	46	1	53	4	-1	51	52	-1	21	-1	45	-1	18	-1	-1	-1	25	41	-1	13	63	-1	26	-1	-1	-1	-1	10	-1	33	-1	59	11	6	-1	15	-1	-1	17	38	12	-1	54	-1	-1	-1	-1	-1	-1	-1	7	9	64	-1	20	31	16	-1	-1
-1	-1	-1	-1	63	-1	18	51	12	-1	-1	36	-1	-1	-1	-1	-1	3	31	-1	54	-1	57	-1	9	-1	-1	-1	55	27	-1	14	-1	-1	-1	-1	-1	-1	-1	-1	48	4	-1	-1	-1	-1	-1	26	-1	-1	5	-1	40	46	52	2	-1	-1	44	-1	19	-1	-1	-1
-1	56	-1	-1	-1	49	62	-1	-1	-1	-1	-1	-1	-1	-1	44	21	-1	-1	12	38	-1	-1	-1	6	-1	31	18	-1	-1	25	-1	5	52	-1	14	-1	41	-1	-1	2	-1	-1	-1	32	-1	35	39	-1	-1	15	4	-1	42	34	24	-1	43	-1	57	-1	-1	7	-1
-1	57	-1	-1	-1	-1	-1	-1	28	-1	59	5	-1	-1	-1	-1	-1	56	-1	-1	60	53	33	48	37	51	30	-1	12	-1	40	10	8	-1	-1	-1	21	36	46	31	41	42	45	44	52	-1	-1	-1	-1	-1	-1	38	-1	-1	-1	-1	-1	-1	-1	-1	-1	-1	-1	-1
-1	-1	-1	22	60	-1	21	-1	-1	23	-1	-1	-1	-1	31	3	-1	11	14	-1	-1	6	-1	50	4	8	-1	-1	-1	-1	16	-1	-1	-1	38	-1	40	64	56	9	-1	-1	-1	34	-1	-1	-1	-1	-1	25	20	-1	-1	-1	-1	44	62	-1	-1	-1	-1	-1	-1	42
59	-1	-1	33	-1	50	-1	-1	53	-1	-1	-1	56	-1	25	-1	-1	-1	-1	26	-1	-1	-1	-1	-1	62	-1	39	-1	-1	-1	24	-1	28	44	43	-1	57	-1	7	-1	9	-1	-1	-1	13	-1	-1	41	-1	-1	21	1	16	36	-1	12	-1	6	14	-1	-1	-1	58
-1	-1	-1	-1	46	-1	-1	-1	-1	-1	-1	-1	-1	-1	-1	-1	-1	57	-1	-1	-1	-1	62	-1	-1	-1	35	-1	-1	-1	-1	-1	-1	-1	-1	-1	-1	-1	-1	-1	37	-1	-1	-1	-1	-1	23	13	-1	15	-1	55	17	32	-1	-1	52	28	-1	-1	-1	42	-1	24
-1	-1	42	21	61	-1	-1	-1	-1	-1	64	62	-1	-1	-1	15	-1	-1	-1	-1	39	50	29	26	-1	58	-1	-1	51	59	-1	22	52	-1	-1	-1	-1	46	36	-1	-1	12	-1	-1	-1	-1	10	34	-1	54	-1	-1	27	-1	8	-1	20	30	-1	32	18	-1	-1	-1
-1	-1	-1	-1	-1	-1	-1	-1	35	-1	21	-1	4	41	-1	-1	-1	-1	-1	54	-1	-1	-1	-1	-1	32	13	-1	-1	-1	-1	-1	-1	-1	-1	6	-1	14	12	58	52	28	-1	2	-1	-1	5	-1	-1	-1	-1	-1	-1	-1	63	-1	-1	39	17	-1	43	-1	-1	-1
32	1	-1	-1	30	-1	-1	-1	-1	29	-1	13	-1	-1	-1	-1	20	-1	-1	-1	-1	-1	-1	-1	63	-1	-1	-1	-1	-1	47	-1	-1	-1	-1	-1	57	-1	-1	-1	14	-1	-1	-1	-1	-1	44	-1	-1	-1	-1	-1	-1	23	-1	26	37	-1	49	56	-1	11	40	41
-1	6	26	-1	33	-1	-1	-1	-1	59	-1	8	-1	-1	50	-1	1	-1	-1	-1	-1	-1	13	-1	-1	21	-1	-1	60	-1	-1	-1	-1	-1	19	-1	64	-1	-1	-1	55	-1	-1	-1	20	22	42	15	-1	-1	-1	62	53	-1	-1	14	-1	-1	7	38	-1	31	-1	-1
56	15	39	44	55	17	-1	20	-1	-1	24	-1	46	-1	40	-1	10	-1	-1	-1	-1	64	-1	35	-1	-1	-1	-1	-1	-1	-1	-1	-1	-1	62	26	-1	32	18	37	60	1	-1	-1	-1	-1	45	-1	22	-1	11	52	-1	-1	21	57	-1	-1	16	33	-1	12	2	54
50	-1	-1	-1	-1	-1	-1	-1	-1	16	-1	-1	-1	58	-1	-1	-1	-1	53	-1	18	-1	3	47	11	38	-1	-1	20	-1	-1	42	28	-1	34	-1	-1	40	-1	-1	-1	32	-1	-1	24	-1	6	61	5	-1	9	-1	35	1	-1	-1	25	-1	-1	-1	-1	-1	-1	59
-1	-1	-1	63	25	4	-1	41	-1	-1	-1	-1	22	28	-1	-1	-1	-1	-1	36	15	-1	30	-1	19	-1	64	-1	10	-1	43	7	-1	-1	49	-1	-1	-1	-1	-1	39	31	17	21	51	16	-1	38	-1	47	-1	-1	3	-1	58	37	-1	-1	-1	60	13	14	-1	-1
-1	-1	-1	27	-1	-1	-1	-1	3	38	19	-1	34	-1	63	62	-1	-1	-1	28	12	36	-1	37	-1	31	21	23	57	-1	-1	1	-1	-1	35	29	17	-1	-1	-1	-1	-1	25	51	-1	45	50	47	55	43	-1	6	-1	18	-1	-1	-1	24	-1	48	33	49	-1	10
-1	-1	-1	31	50	-1	20	-1	-1	40	-1	55	-1	44	51	59	-1	-1	7	61	-1	-1	6	-1	-1	-1	4	-1	-1	-1	63	8	-1	-1	-1	-1	-1	5	16	-1	-1	-1	-1	-1	1	-1	-1	-1	-1	-1	-1	29	57	-1	60	-1	-1	37	-1	-1	46	-1	45	-1
61	-1	-1	-1	-1	-1	41	2	13	25	-1	-1	-1	17	-1	49	-1	-1	40	-1	-1	-1	32	24	-1	28	-1	-1	-1	54	36	-1	47	26	-1	19	-1	43	-1	38	7	15	-1	-1	-1	60	-1	5	-1	23	-1	45	-1	-1	-1	-1	-1	-1	34	-1	63	58	-1	-1
-1	21	36	-1	-1	-1	-1	-1	22	-1	23	-1	-1	6	-1	31	-1	45	-1	-1	5	-1	-1	-1	2	40	-1	58	39	30	-1	-1	60	50	-1	64	-1	-1	-1	33	29	-1	-1	-1	44	-1	-1	-1	49	-1	-1	-1	24	62	-1	59	-1	-1	-1	-1	8	9	14	57
-1	22	-1	-1	-1	-1	46	-1	-1	48	-1	50	-1	8	36	-1	-1	-1	-1	35	-1	-1	2	-1	-1	19	-1	-1	-1	45	-1	-1	-1	23	-1	-1	11	49	-1	-1	-1	-1	-1	-1	21	-1	33	-1	-1	-1	-1	44	-1	-1	-1	-1	-1	60	-1	12	6	-1	-1	-1
-1	-1	43	55	-1	-1	60	-1	10	-1	26	24	-1	2	-1	-1	-1	-1	-1	62	19	33	54	-1	-1	49	-1	11	-1	46	52	-1	57	51	-1	13	-1	-1	-1	6	-1	-1	48	39	-1	-1	38	27	-1	4	-1	35	-1	40	17	-1	18	-1	64	22	47	-1	-1	29
7	-1	53	-1	-1	58	-1	39	-1	37	4	-1	-1	-1	-1	-1	30	-1	-1	-1	-1	-1	-1	-1	29	5	27	-1	3	9	-1	-1	-1	12	-1	-1	-1	45	-1	-1	8	19	6	36	-1	55	-1	22	-1	28	-1	-1	-1	-1	-1	-1	-1	51	59	-1	-1	-1	20	-1
49	45	57	-1	15	-1	-1	-1	5	52	-1	-1	-1	-1	-1	9	-1	-1	38	3	-1	-1	-1	-1	34	60	-1	-1	47	-1	26	-1	46	10	63	-1	-1	-1	-1	2	53	-1	-1	-1	-1	-1	-1	37	48	-1	50	-1	8	-1	-1	-1	11	36	-1	-1	-1	-1	-1	28
-1	-1	-1	-1	-1	-1	58	-1	-1	-1	-1	-1	50	-1	20	-1	-1	-1	48	-1	-1	-1	16	-1	-1	-1	5	-1	42	51	-1	34	13	22	-1	45	63	47	-1	-1	-1	-1	54	-1	-1	6	24	-1	-1	-1	-1	-1	55	43	-1	18	-1	-1	-1	9	-1	-1	27	49
5	-1	63	2	28	57	-1	17	24	-1	34	-1	-1	-1	-1	4	-1	29	-1	30	-1	-1	-1	10	-1	-1	7	56	45	-1	-1	-1	26	-1	3	23	15	-1	64	-1	32	-1	-1	13	-1	-1	25	21	-1	-1	-1	22	60	8	48	-1	-1	-1	58	-1	16	-1	55	-1
-1	29	-1	-1	-1	10	-1	7	-1	41	22	-1	3	23	33	-1	61	4	-1	-1	14	-1	-1	-1	21	26	-1	-1	-1	-1	-1	-1	37	-1	-1	39	38	-1	-1	-1	-1	16	-1	12	-1	-1	-1	-1	31	-1	-1	-1	47	-1	-1	40	45	-1	-1	44	32	-1	18	63
37	26	-1	49	34	-1	-1	30	-1	-1	1	-1	55	-1	-1	-1	-1	62	47	58	-1	-1	-1	-1	-1	27	-1	40	-1	-1	-1	16	-1	-1	-1	-1	-1	-1	57	17	-1	-1	-1	43	-1	48	61	-1	39	-1	7	-1	-1	-1	19	29	-1	-1	-1	-1	59	-1	-1	53
-1	25	-1	-1	56	-1	53	47	39	-1	9	-1	37	-1	-1	-1	-1	-1	-1	-1	-1	15	-1	-1	-1	-1	2	-1	28	-1	-1	-1	-1	49	-1	8	-1	10	-1	-1	42	63	22	20	-1	-1	11	-1	-1	-1	51	-1	45	-1	-1	23	-1	-1	-1	-1	62	-1	-1	-1
54	46	-1	43	16	-1	19	9	-1	-1	62	-1	-1	-1	-1	63	-1	-1	2	-1	-1	-1	-1	-1	-1	25	-1	-1	-1	-1	10	30	-1	-1	41	-1	56	-1	-1	-1	-1	37	-1	-1	-1	-1	-1	14	-1	24	52	-1	59	38	-1	64	-1	-1	-1	-1	17	-1	23	-1
-1	-1	6	12	24	-1	-1	-1	16	-1	-1	-1	-1	-1	-1	29	31	63	-1	43	56	-1	45	27	35	64	-1	20	22	4	-1	-1	14	61	-1	-1	32	-1	-1	-1	40	39	34	15	-1	53	60	-1	1	-1	3	-1	-1	-1	28	-1	46	-1	-1	2	50	-1	-1	48
51	-1	-1	59	-1	22	23	-1	-1	58	14	27	45	-1	15	25	-1	-1	12	19	34	-1	26	6	32	-1	46	43	-1	-1	55	-1	-1	-1	-1	60	-1	-1	-1	-1	-1	-1	-1	-1	47	-1	2	-1	-1	49	13	33	-1	61	10	-1	-1	-1	-1	-1	-1	-1	37	-1
-1	37	-1	-1	-1	-1	43	-1	50	11	-1	53	-1	-1	6	-1	-1	12	41	-1	32	16	-1	-1	-1	47	-1	-1	-1	-1	21	-1	38	31	-1	-1	-1	-1	-1	-1	17	-1	-1	-1	57	-1	55	-1	-1	19	-1	-1	-1	20	3	-1	-1	-1	-1	-1	-1	-1	52	-1
-1	-1	-1	19	-1	-1	33	22	-1	-1	-1	31	26	-1	-1	-1	15	-1	61	-1	-1	-1	55	-1	-1	-1	39	12	-1	-1	37	-1	-1	54	-1	47	34	42	-1	63	24	3	62	45	8	-1	14	-1	-1	-1	-1	-1	-1	-1	-1	28	-1	-1	36	-1	-1	-1	-1	-1
9	63	-1	-1	45	20	7	-1	-1	3	-1	-1	29	-1	47	17	-1	-1	56	-1	-1	-1	10	23	62	30	-1	-1	-1	-1	-1	-1	58	-1	-1	50	2	27	-1	53	12	38	-1	25	15	54	-1	49	51	59	-1	-1	34	-1	37	-1	-1	-1	-1	-1	11	5	-1	60
58	4	-1	34	-1	52	15	14	-1	33	-1	-1	9	-1	-1	-1	-1	-1	-1	-1	64	-1	44	18	57	-1	-1	45	27	53	20	48	19	40	13	-1	25	-1	-1	-1	-1	-1	10	-1	43	-1	-1	-1	-1	-1	35	54	-1	-1	-1	-1	-1	-1	-1	-1	-1	-1	16	-1
-1	-1	-1	-1	47	-1	50	6	32	34	-1	-1	58	5	22	64	54	51	-1	-1	-1	-1	-1	-1	-1	15	9	-1	-1	23	-1	-1	-1	8	-1	-1	14	-1	21	-1	-1	-1	4	16	-1	-1	-1	-1	24	-1	-1	48	42	-1	-1	38	-1	-1	-1	-1	-1	-1	-1	-1
-1	27	-1	-1	-1	23	-1	29	51	-1	-1	-1	-1	19	-1	-1	-1	2	58	-1	-1	4	60	-1	38	54	11	-1	43	10	-1	-1	-1	-1	-1	-1	-1	-1	-1	1	22	35	47	-1	-1	-1	34	-1	-1	16	-1	15	-1	57	39	-1	50	-1	56	-1	-1	33	-1	6
-1	64	-1	56	-1	-1	38	-1	54	-1	-1	-1	-1	-1	13	-1	-1	19	-1	6	-1	-1	-1	-1	-1	22	63	-1	-1	14	51	-1	-1	41	-1	-1	-1	-1	45	-1	9	-1	37	-1	-1	-1	32	-1	-1	-1	47	-1	-1	-1	-1	52	-1	-1	-1	-1	-1	-1	8	-1
44	-1	12	17	31	-1	57	-1	-1	-1	-1	-1	-1	45	8	35	-1	-1	-1	47	-1	24	-1	38	-1	52	-1	-1	36	7	-1	-1	-1	5	39	-1	-1	-1	15	-1	-1	60	-1	1	33	-1	48	56	-1	-1	-1	40	-1	-1	55	-1	-1	-1	53	54	-1	-1	49	46
-1	-1	1	-1	-1	-1	47	52	-1	-1	-1	4	-1	-1	-1	-1	-1	-1	-1	-1	-1	38	24	-1	-1	-1	-1	-1	-1	11	3	28	-1	34	-1	-1	9	-1	26	-1	58	10	2	31	36	-1	8	6	60	-1	23	32	-1	64	27	-1	-1	25	45	-1	-1	-1	-1	-1
63	11	45	30	57	9	-1	5	-1	-1	-1	-1	-1	-1	2	-1	4	-1	49	-1	-1	58	-1	-1	-1	56	-1	-1	8	-1	6	13	53	-1	-1	-1	-1	38	-1	-1	-1	55	-1	-1	-1	-1	-1	-1	-1	52	-1	41	16	-1	61	15	-1	-1	-1	-1	-1	-1	-1	-1
4	-1	61	23	-1	41	-1	-1	56	55	40	-1	-1	-1	-1	-1	-1	-1	-1	-1	62	59	-1	-1	-1	7	-1	50	-1	42	57	-1	-1	15	-1	-1	-1	16	-1	-1	5	51	-1	37	19	30	52	-1	-1	35	34	-1	6	53	-1	39	-1	1	-1	-1	-1	18	47	-1
-1	-1	50	-1	-1	-1	-1	-1	58	-1	-1	-1	-1	-1	44	-1	-1	61	39	-1	-1	-1	-1	-1	-1	-1	-1	-1	37	21	-1	-1	62	-1	-1	10	28	-1	41	36	-1	45	-1	42	-1	-1	-1	-1	29	-1	18	-1	26	-1	-1	13	40	-1	-1	-1	-1	-1	54	-1
-1	-1	56	-1	-1	-1	36	-1	-1	-1	-1	-1	63	-1	-1	28	45	-1	-1	32	6	2	-1	-1	-1	48	-1	51	-1	43	-1	-1	-1	-1	-1	-1	31	17	-1	57	11	-1	38	-1	61	-1	-1	-1	8	50	-1	-1	62	19	49	10	16	58	-1	-1	-1	-1	42	-1
15	-1	46	-1	-1	-1	28	8	-1	-1	-1	11	31	12	1	52	-1	-1	20	-1	10	-1	-1	-1	-1	45	-1	-1	19	-1	-1	26	24	-1	7	-1	-1	3	-1	49	-1	14	21	-1	-1	-1	64	-1	-1	-1	-1	58	36	47	4	-1	-1	-1	-1	37	-1	27	-1	2
-1	31	48	7	37	-1	25	-1	41	-1	-1	-1	-1	-1	-1	-1	-1	-1	57	-1	21	-1	19	8	-1	17	40	35	29	-1	-1	-1	11	60	-1	52	5	-1	-1	50	44	-1	-1	4	-1	47	-1	-1	30	20	-1	24	-1	-1	-1	-1	28	12	-1	-1	-1	-1	-1	14
14	-1	-1	-1	59	38	40	27	45	57	30	-1	-1	49	-1	6	-1	13	18	-1	-1	51	48	-1	-1	2	-1	10	24	22	-1	-1	-1	-1	-1	-1	35	-1	-1	46	-1	-1	-1	3	-1	17	-1	-1	42	-1	63	-1	-1	-1	-1	-1	26	41	50	-1	-1	-1	-1	-1
20	-1	33	54	32	-1	-1	34	31	53	63	44	-1	48	-1	-1	-1	-1	-1	42	30	1	-1	-1	-1	-1	-1	-1	-1	-1	-1	-1	39	-1	-1	-1	-1	-1	-1	13	27	-1	43	11	-1	-1	-1	-1	-1	-1	-1	-1	-1	-1	64	21	-1	9	-1	-1	25	-1	-1	-1
-1	-1	64	45	49	-1	24	31	6	43	-1	-1	51	34	-1	-1	-1	9	-1	-1	40	-1	35	-1	5	-1	-1	30	11	-1	-1	27	-1	-1	50	38	62	58	4	42	-1	21	39	-1	-1	-1	-1	-1	-1	-1	16	-1	22	28	46	-1	56	-1	37	-1	54	-1	-1	-1
29	42	-1	-1	-1	30	16	62	-1	-1	49	-1	-1	-1	-1	50	53	-1	-1	15	-1	-1	-1	61	-1	-1	-1	-1	-1	-1	18	-1	-1	1	-1	-1	-1	-1	3	-1	-1	41	-1	33	-1	-1	-1	-1	17	-1	-1	-1	11	25	-1	-1	-1	10	-1	28	-1	-1	-1	-1
-1	-1	-1	-1	6	-1	-1	-1	-1	-1	-1	46	52	-1	60	26	-1	49	51	-1	-1	18	-1	62	28	-1	57	-1	41	13	-1	35	-1	56	-1	-1	-1	-1	-1	19	64	-1	7	54	40	-1	-1	17	32	-1	4	-1	39	10	29	-1	38	-1	-1	16	58	-1	-1	5
-1	-1	-1	-1	7	-1	-1	-1	-1	14	-1	61	-1	-1	-1	22	-1	36	21	-1	47	-1	-1	-1	43	1	-1	-1	-1	-1	-1	-1	-1	-1	-1	-1	-1	-1	29	-1	-1	-1	-1	57	42	-1	-1	2	-1	-1	19	-1	-1	-1	-1	-1	-1	52	-1	-1	39	-1	-1	51
52	-1	11	-1	35	-1	-1	13	-1	1	-1	45	36	42	-1	-1	-1	-1	-1	-1	-1	-1	-1	-1	-1	6	19	-1	-1	-1	60	-1	17	53	-1	-1	-1	-1	-1	-1	-1	18	-1	-1	-1	58	37	-1	-1	-1	26	34	-1	-1	-1	-1	-1	21	-1	-1	14	32	-1	-1
36	47	10	58	41	-1	3	-1	-1	8	-1	-1	-1	-1	4	-1	29	-1	64	27	25	-1	23	13	-1	-1	51	-1	-1	-1	46	54	-1	-1	-1	-1	-1	-1	-1	-1	50	53	1	-1	28	-1	-1	55	-1	-1	-1	-1	18	35	-1	42	57	-1	-1	-1	61	-1	24	-1
38	9	-1	-1	-1	39	-1	-1	20	-1	-1	-1	-1	37	28	54	57	-1	-1	-1	55	19	31	41	-1	36	-1	63	25	48	-1	-1	-1	-1	-1	33	-1	-1	22	-1	16	46	-1	-1	-1	-1	-1	-1	-1	-1	-1	43	14	-1	-1	1	53	2	-1	27	42	40	11	50
64 
10 30 60 62
10 61 15 6
61 14 21 11
43 54 57 47
64 50 30 6
22 18 48 56
44 36 22 20
36 23 13 11
39 50 34 46
50 61 45 62
28 15 13 9
5 37 23 2
25 6 1 59
17 20 23 5
47 14 35 55
17 6 1 16
39 12 58 11
27 3 49 1
56 63 4 16
17 34 63 47
43 22 31 33
59 25 9 40
52 21 23 9
19 19 64 18
29 55 51 25
38 46 50 45
16 23 62 11
61 24 29 3
19 3 45 21
17 44 6 18
46 63 59 55
42 50 33 55
12 16 31 32
24 16 29 39
12 6 21 61
60 33 15 62
60 23 15 45
20 39 34 31
3 60 34 7
3 5 18 49
54 17 8 46
12 28 41 46
52 48 60 8
60 42 54 27
18 62 15 49
34 34 24 59
28 10 14 1
51 39 61 54
38 24 22 9
50 23 61 55
1 40 3 53
20 15 9 7
49 16 33 51
41 3 37 25
56 39 7 35
4 63 55 45
57 35 27 13
56 3 32 15
3 58 19 54
23 52 47 50
19 22 9 43
63 46 41 38
30 19 31 54
16 5 5 34
